Maximize
  NxS_e0 + NxS_e1 + NxS_e2 + NxS_e3 + NxS_e5 + NxS_e6 + NxS_e7 + NxS_e9 + NxS_e11
Subject to
  -S_BB_1 + S_e_0 = 0
  -S_BB_1 = 0
  -S_BB_2 + S_e_1 = 0
  -S_BB_2 + S_e_0 = 0
  -S_BB_3 + S_e_2 = 0
  -S_BB_3 + S_e_1 = 0
  -S_BB_4 + S_e_3 = 0
  -S_BB_4 + S_e_2 + S_e_6 = 0
  -S_BB_5 + S_e_5 = 0
  -S_BB_5 + S_e_3 = 0
  -S_BB_6 + S_e_6 + S_e_7 = 0
  -S_BB_6 + S_e_5 = 0
  -S_BB_7 + S_e_9 = 0
  -S_BB_7 + S_e_7 = 0
  -S_BB_8 + S_e_11 = 0
  -S_BB_8 + S_e_9 = 0
  -S_BB_9 = 0
  -S_BB_9 + S_e_11 = 0
  NxS_e0 - N <= 0
  -8 S_e_0 + NxS_e0 <= 0
  -8 S_e_0 + NxS_e0 - N >= -8
  -7 S_e_0 - N >= -8
  NxS_e1 - N <= 0
  -8 S_e_1 + NxS_e1 <= 0
  -8 S_e_1 + NxS_e1 - N >= -8
  -7 S_e_1 - N >= -8
  NxS_e2 - N <= 0
  -8 S_e_2 + NxS_e2 <= 0
  -8 S_e_2 + NxS_e2 - N >= -8
  -7 S_e_2 - N >= -8
  NxS_e3 - N <= 0
  -8 S_e_3 + NxS_e3 <= 0
  -8 S_e_3 + NxS_e3 - N >= -8
  -N >= -8
  NxS_e5 - N <= 0
  -8 S_e_5 + NxS_e5 <= 0
  -8 S_e_5 + NxS_e5 - N >= -8
  -N >= -8
  NxS_e6 - N <= 0
  -8 S_e_6 + NxS_e6 <= 0
  -8 S_e_6 + NxS_e6 - N >= -8
  -S_e_6 - N >= -8
  NxS_e7 - N <= 0
  -8 S_e_7 + NxS_e7 <= 0
  -8 S_e_7 + NxS_e7 - N >= -8
  -7 S_e_7 - N >= -8
  NxS_e9 - N <= 0
  -8 S_e_9 + NxS_e9 <= 0
  -8 S_e_9 + NxS_e9 - N >= -8
  -7 S_e_9 - N >= -8
  NxS_e11 - N <= 0
  -8 S_e_11 + NxS_e11 <= 0
  -8 S_e_11 + NxS_e11 - N >= -8
  -7 S_e_11 - N >= -8
  S_e_6 = 1
Bounds
  0 <= NxS_e0 <= 1
  0 <= NxS_e1 <= 1
  0 <= NxS_e2 <= 1
  0 <= NxS_e3 <= 8
  0 <= NxS_e5 <= 8
  0 <= NxS_e6 <= 7
  0 <= NxS_e7 <= 1
  0 <= NxS_e9 <= 1
  0 <= NxS_e11 <= 1
  0 <= N <= 8
General
  N
Binary
  S_BB_1 S_BB_2 S_BB_3 S_BB_4 S_BB_5 S_BB_6 S_BB_7 S_BB_8 S_BB_9 S_e_0 S_e_1 S_e_2 S_e_3 S_e_5 S_e_6 S_e_7 S_e_9 S_e_11
End
